(set-info :status unsat)
(set-logic QF_NRA)
(set-logic QF_NRA2)
(set-info :source | KeYmaera example: controllability-lemma-disturbed, node 10924 For more info see: @see "Andre Platzer and Jan-David Quesel. European Train Control System: A case study in formal verification. In Karin Breitman and Ana Cavalcanti, editors, 11th International Conference on Formal Engineering Methods, ICFEM, Rio de Janeiro, Brasil, Proceedings, volume 5885 of LNCS, pages 246-265. Springer, 2009."|)
(set-info :smt-lib-version 2.0)
(declare-fun v () Real)
(declare-fun d () Real)
(declare-fun u () Real)
(declare-fun b () Real)
(declare-fun l () Real)
(declare-fun m () Real)
(declare-fun dvuscore2dollarskuscore0 () Real)
(declare-fun z () Real)
(declare-fun vuscore1dollarskuscore0 () Real)
(assert (not (=> (and (and (and (and (and (and (and (and (and (<= (- (- b) l) dvuscore2dollarskuscore0) (<= dvuscore2dollarskuscore0 (+ (- b) u))) (>= vuscore1dollarskuscore0 0.0)) (<= (- (* v v) (* d d)) (* (* 2.0 (- b u)) (- m z)))) (>= v 0.0)) (>= d 0.0)) (> b u)) (>= u 0.0)) (>= l 0.0)) (<= z m)) (<= (* (* 2.0 dvuscore2dollarskuscore0) vuscore1dollarskuscore0) (* (* (- 2.0) (+ b (* (- 1.0) u))) vuscore1dollarskuscore0)))))
(check-sat)

